p edge 138 1186
v 1 43
v 2 421
v 3 23
v 4 214
v 5 120
v 6 125
v 7 122
v 8 128
v 9 461
v 10 127
v 11 506
v 12 80
v 13 335
v 14 130
v 15 74
v 16 116
v 17 328
v 18 71
v 19 66
v 20 220
v 21 314
v 22 132
v 23 90
v 24 170
v 25 127
v 26 71
v 27 66
v 28 26
v 29 26
v 30 38
v 31 421
v 32 506
v 33 66
v 34 66
v 35 215
v 36 99
v 37 111
v 38 201
v 39 10
v 40 171
v 41 35
v 42 128
v 43 64
v 44 178
v 45 26
v 46 215
v 47 244
v 48 40
v 49 51
v 50 40
v 51 32
v 52 44
v 53 99
v 54 244
v 55 108
v 56 568
v 57 86
v 58 248
v 59 105
v 60 95
v 61 157
v 62 155
v 63 23
v 64 80
v 65 111
v 66 108
v 67 8
v 68 38
v 69 18
v 70 10
v 71 30
v 72 214
v 73 335
v 74 26
v 75 201
v 76 568
v 77 17
v 78 41
v 79 25
v 80 25
v 81 34
v 82 158
v 83 24
v 84 20
v 85 14
v 86 12
v 87 86
v 88 17
v 89 12
v 90 120
v 91 130
v 92 220
v 93 171
v 94 40
v 95 248
v 96 38
v 97 41
v 98 20
v 99 28
v 100 125
v 101 74
v 102 314
v 103 35
v 104 51
v 105 105
v 106 18
v 107 25
v 108 8
v 109 122
v 110 116
v 111 132
v 112 128
v 113 40
v 114 95
v 115 25
v 116 13
v 117 24
v 118 128
v 119 328
v 120 90
v 121 64
v 122 32
v 123 157
v 124 10
v 125 34
v 126 20
v 127 13
v 128 461
v 129 170
v 130 38
v 131 178
v 132 44
v 133 155
v 134 30
v 135 158
v 136 12
v 137 28
v 138 24
e 1 2
e 1 3
e 1 4
e 1 5
e 1 6
e 1 7
e 1 8
e 1 9
e 1 10
e 1 18
e 1 34
e 1 45
e 1 74
e 1 130
e 2 3
e 2 4
e 2 5
e 2 6
e 2 7
e 2 8
e 2 9
e 2 11
e 2 19
e 2 27
e 2 46
e 2 53
e 2 65
e 2 75
e 2 93
e 2 103
e 2 112
e 2 121
e 2 131
e 3 4
e 3 5
e 3 6
e 3 7
e 3 8
e 3 9
e 3 12
e 3 37
e 3 55
e 3 96
e 3 106
e 3 124
e 3 134
e 4 5
e 4 6
e 4 7
e 4 8
e 4 9
e 4 13
e 4 29
e 4 38
e 4 56
e 4 88
e 4 97
e 4 107
e 4 115
e 4 125
e 4 135
e 5 6
e 5 7
e 5 8
e 5 9
e 5 14
e 5 20
e 5 40
e 5 48
e 5 58
e 5 68
e 5 78
e 5 126
e 5 137
e 6 7
e 6 8
e 6 9
e 6 15
e 6 21
e 6 41
e 6 49
e 6 59
e 6 69
e 6 79
e 7 8
e 7 9
e 7 16
e 7 22
e 7 42
e 7 50
e 7 60
e 7 80
e 7 127
e 7 138
e 8 9
e 8 17
e 8 23
e 8 43
e 8 51
e 8 61
e 8 70
e 8 81
e 8 98
e 8 116
e 9 24
e 9 30
e 9 44
e 9 52
e 9 62
e 9 71
e 9 82
e 9 89
e 9 99
e 9 108
e 9 117
e 10 11
e 10 12
e 10 13
e 10 14
e 10 15
e 10 16
e 10 17
e 10 18
e 10 34
e 10 45
e 10 74
e 10 130
e 11 12
e 11 13
e 11 14
e 11 15
e 11 16
e 11 17
e 11 19
e 11 27
e 11 46
e 11 53
e 11 65
e 11 75
e 11 93
e 11 103
e 11 112
e 11 121
e 11 131
e 12 13
e 12 14
e 12 15
e 12 16
e 12 17
e 12 37
e 12 55
e 12 96
e 12 106
e 12 124
e 12 134
e 13 14
e 13 15
e 13 16
e 13 17
e 13 29
e 13 38
e 13 56
e 13 88
e 13 97
e 13 107
e 13 115
e 13 125
e 13 135
e 14 15
e 14 16
e 14 17
e 14 20
e 14 40
e 14 48
e 14 58
e 14 68
e 14 78
e 14 126
e 14 137
e 15 16
e 15 17
e 15 21
e 15 41
e 15 49
e 15 59
e 15 69
e 15 79
e 16 17
e 16 22
e 16 42
e 16 50
e 16 60
e 16 80
e 16 127
e 16 138
e 17 23
e 17 43
e 17 51
e 17 61
e 17 70
e 17 81
e 17 98
e 17 116
e 18 19
e 18 20
e 18 21
e 18 22
e 18 23
e 18 24
e 18 34
e 18 45
e 18 74
e 18 130
e 19 20
e 19 21
e 19 22
e 19 23
e 19 24
e 19 27
e 19 46
e 19 53
e 19 65
e 19 75
e 19 93
e 19 103
e 19 112
e 19 121
e 19 131
e 20 21
e 20 22
e 20 23
e 20 24
e 20 40
e 20 48
e 20 58
e 20 68
e 20 78
e 20 126
e 20 137
e 21 22
e 21 23
e 21 24
e 21 41
e 21 49
e 21 59
e 21 69
e 21 79
e 22 23
e 22 24
e 22 42
e 22 50
e 22 60
e 22 80
e 22 127
e 22 138
e 23 24
e 23 43
e 23 51
e 23 61
e 23 70
e 23 81
e 23 98
e 23 116
e 24 30
e 24 44
e 24 52
e 24 62
e 24 71
e 24 82
e 24 89
e 24 99
e 24 108
e 24 117
e 25 26
e 25 27
e 25 28
e 25 29
e 25 30
e 25 32
e 25 64
e 25 73
e 25 84
e 25 91
e 25 101
e 25 110
e 25 119
e 26 27
e 26 28
e 26 29
e 26 30
e 26 33
e 26 85
e 26 92
e 26 102
e 26 111
e 26 120
e 26 129
e 27 28
e 27 29
e 27 30
e 27 46
e 27 53
e 27 65
e 27 75
e 27 93
e 27 103
e 27 112
e 27 121
e 27 131
e 28 29
e 28 30
e 28 35
e 28 54
e 28 86
e 28 94
e 28 104
e 28 113
e 28 122
e 28 132
e 29 30
e 29 38
e 29 56
e 29 88
e 29 97
e 29 107
e 29 115
e 29 125
e 29 135
e 30 44
e 30 52
e 30 62
e 30 71
e 30 82
e 30 89
e 30 99
e 30 108
e 30 117
e 31 32
e 31 33
e 31 34
e 31 35
e 31 36
e 31 37
e 31 38
e 31 39
e 31 40
e 31 41
e 31 42
e 31 43
e 31 44
e 31 63
e 31 72
e 31 83
e 31 90
e 31 100
e 31 109
e 31 118
e 31 128
e 32 33
e 32 34
e 32 35
e 32 36
e 32 37
e 32 38
e 32 39
e 32 40
e 32 41
e 32 42
e 32 43
e 32 44
e 32 64
e 32 73
e 32 84
e 32 91
e 32 101
e 32 110
e 32 119
e 33 34
e 33 35
e 33 36
e 33 37
e 33 38
e 33 39
e 33 40
e 33 41
e 33 42
e 33 43
e 33 44
e 33 85
e 33 92
e 33 102
e 33 111
e 33 120
e 33 129
e 34 35
e 34 36
e 34 37
e 34 38
e 34 39
e 34 40
e 34 41
e 34 42
e 34 43
e 34 44
e 34 45
e 34 74
e 34 130
e 35 36
e 35 37
e 35 38
e 35 39
e 35 40
e 35 41
e 35 42
e 35 43
e 35 44
e 35 54
e 35 86
e 35 94
e 35 104
e 35 113
e 35 122
e 35 132
e 36 37
e 36 38
e 36 39
e 36 40
e 36 41
e 36 42
e 36 43
e 36 44
e 36 47
e 36 66
e 36 76
e 36 87
e 36 95
e 36 105
e 36 114
e 36 123
e 36 133
e 37 38
e 37 39
e 37 40
e 37 41
e 37 42
e 37 43
e 37 44
e 37 55
e 37 96
e 37 106
e 37 124
e 37 134
e 38 39
e 38 40
e 38 41
e 38 42
e 38 43
e 38 44
e 38 56
e 38 88
e 38 97
e 38 107
e 38 115
e 38 125
e 38 135
e 39 40
e 39 41
e 39 42
e 39 43
e 39 44
e 39 57
e 39 67
e 39 77
e 39 136
e 40 41
e 40 42
e 40 43
e 40 44
e 40 48
e 40 58
e 40 68
e 40 78
e 40 126
e 40 137
e 41 42
e 41 43
e 41 44
e 41 49
e 41 59
e 41 69
e 41 79
e 42 43
e 42 44
e 42 50
e 42 60
e 42 80
e 42 127
e 42 138
e 43 44
e 43 51
e 43 61
e 43 70
e 43 81
e 43 98
e 43 116
e 44 52
e 44 62
e 44 71
e 44 82
e 44 89
e 44 99
e 44 108
e 44 117
e 45 46
e 45 47
e 45 48
e 45 49
e 45 50
e 45 51
e 45 52
e 45 74
e 45 130
e 46 47
e 46 48
e 46 49
e 46 50
e 46 51
e 46 52
e 46 53
e 46 65
e 46 75
e 46 93
e 46 103
e 46 112
e 46 121
e 46 131
e 47 48
e 47 49
e 47 50
e 47 51
e 47 52
e 47 66
e 47 76
e 47 87
e 47 95
e 47 105
e 47 114
e 47 123
e 47 133
e 48 49
e 48 50
e 48 51
e 48 52
e 48 58
e 48 68
e 48 78
e 48 126
e 48 137
e 49 50
e 49 51
e 49 52
e 49 59
e 49 69
e 49 79
e 50 51
e 50 52
e 50 60
e 50 80
e 50 127
e 50 138
e 51 52
e 51 61
e 51 70
e 51 81
e 51 98
e 51 116
e 52 62
e 52 71
e 52 82
e 52 89
e 52 99
e 52 108
e 52 117
e 53 54
e 53 55
e 53 56
e 53 57
e 53 58
e 53 59
e 53 60
e 53 61
e 53 62
e 53 65
e 53 75
e 53 93
e 53 103
e 53 112
e 53 121
e 53 131
e 54 55
e 54 56
e 54 57
e 54 58
e 54 59
e 54 60
e 54 61
e 54 62
e 54 86
e 54 94
e 54 104
e 54 113
e 54 122
e 54 132
e 55 56
e 55 57
e 55 58
e 55 59
e 55 60
e 55 61
e 55 62
e 55 96
e 55 106
e 55 124
e 55 134
e 56 57
e 56 58
e 56 59
e 56 60
e 56 61
e 56 62
e 56 88
e 56 97
e 56 107
e 56 115
e 56 125
e 56 135
e 57 58
e 57 59
e 57 60
e 57 61
e 57 62
e 57 67
e 57 77
e 57 136
e 58 59
e 58 60
e 58 61
e 58 62
e 58 68
e 58 78
e 58 126
e 58 137
e 59 60
e 59 61
e 59 62
e 59 69
e 59 79
e 60 61
e 60 62
e 60 80
e 60 127
e 60 138
e 61 62
e 61 70
e 61 81
e 61 98
e 61 116
e 62 71
e 62 82
e 62 89
e 62 99
e 62 108
e 62 117
e 63 64
e 63 65
e 63 66
e 63 67
e 63 68
e 63 69
e 63 70
e 63 71
e 63 72
e 63 83
e 63 90
e 63 100
e 63 109
e 63 118
e 63 128
e 64 65
e 64 66
e 64 67
e 64 68
e 64 69
e 64 70
e 64 71
e 64 73
e 64 84
e 64 91
e 64 101
e 64 110
e 64 119
e 65 66
e 65 67
e 65 68
e 65 69
e 65 70
e 65 71
e 65 75
e 65 93
e 65 103
e 65 112
e 65 121
e 65 131
e 66 67
e 66 68
e 66 69
e 66 70
e 66 71
e 66 76
e 66 87
e 66 95
e 66 105
e 66 114
e 66 123
e 66 133
e 67 68
e 67 69
e 67 70
e 67 71
e 67 77
e 67 136
e 68 69
e 68 70
e 68 71
e 68 78
e 68 126
e 68 137
e 69 70
e 69 71
e 69 79
e 70 71
e 70 81
e 70 98
e 70 116
e 71 82
e 71 89
e 71 99
e 71 108
e 71 117
e 72 73
e 72 74
e 72 75
e 72 76
e 72 77
e 72 78
e 72 79
e 72 80
e 72 81
e 72 82
e 72 83
e 72 90
e 72 100
e 72 109
e 72 118
e 72 128
e 73 74
e 73 75
e 73 76
e 73 77
e 73 78
e 73 79
e 73 80
e 73 81
e 73 82
e 73 84
e 73 91
e 73 101
e 73 110
e 73 119
e 74 75
e 74 76
e 74 77
e 74 78
e 74 79
e 74 80
e 74 81
e 74 82
e 74 130
e 75 76
e 75 77
e 75 78
e 75 79
e 75 80
e 75 81
e 75 82
e 75 93
e 75 103
e 75 112
e 75 121
e 75 131
e 76 77
e 76 78
e 76 79
e 76 80
e 76 81
e 76 82
e 76 87
e 76 95
e 76 105
e 76 114
e 76 123
e 76 133
e 77 78
e 77 79
e 77 80
e 77 81
e 77 82
e 77 136
e 78 79
e 78 80
e 78 81
e 78 82
e 78 126
e 78 137
e 79 80
e 79 81
e 79 82
e 80 81
e 80 82
e 80 127
e 80 138
e 81 82
e 81 98
e 81 116
e 82 89
e 82 99
e 82 108
e 82 117
e 83 84
e 83 85
e 83 86
e 83 87
e 83 88
e 83 89
e 83 90
e 83 100
e 83 109
e 83 118
e 83 128
e 84 85
e 84 86
e 84 87
e 84 88
e 84 89
e 84 91
e 84 101
e 84 110
e 84 119
e 85 86
e 85 87
e 85 88
e 85 89
e 85 92
e 85 102
e 85 111
e 85 120
e 85 129
e 86 87
e 86 88
e 86 89
e 86 94
e 86 104
e 86 113
e 86 122
e 86 132
e 87 88
e 87 89
e 87 95
e 87 105
e 87 114
e 87 123
e 87 133
e 88 89
e 88 97
e 88 107
e 88 115
e 88 125
e 88 135
e 89 99
e 89 108
e 89 117
e 90 91
e 90 92
e 90 93
e 90 94
e 90 95
e 90 96
e 90 97
e 90 98
e 90 99
e 90 100
e 90 109
e 90 118
e 90 128
e 91 92
e 91 93
e 91 94
e 91 95
e 91 96
e 91 97
e 91 98
e 91 99
e 91 101
e 91 110
e 91 119
e 92 93
e 92 94
e 92 95
e 92 96
e 92 97
e 92 98
e 92 99
e 92 102
e 92 111
e 92 120
e 92 129
e 93 94
e 93 95
e 93 96
e 93 97
e 93 98
e 93 99
e 93 103
e 93 112
e 93 121
e 93 131
e 94 95
e 94 96
e 94 97
e 94 98
e 94 99
e 94 104
e 94 113
e 94 122
e 94 132
e 95 96
e 95 97
e 95 98
e 95 99
e 95 105
e 95 114
e 95 123
e 95 133
e 96 97
e 96 98
e 96 99
e 96 106
e 96 124
e 96 134
e 97 98
e 97 99
e 97 107
e 97 115
e 97 125
e 97 135
e 98 99
e 98 116
e 99 108
e 99 117
e 100 101
e 100 102
e 100 103
e 100 104
e 100 105
e 100 106
e 100 107
e 100 108
e 100 109
e 100 118
e 100 128
e 101 102
e 101 103
e 101 104
e 101 105
e 101 106
e 101 107
e 101 108
e 101 110
e 101 119
e 102 103
e 102 104
e 102 105
e 102 106
e 102 107
e 102 108
e 102 111
e 102 120
e 102 129
e 103 104
e 103 105
e 103 106
e 103 107
e 103 108
e 103 112
e 103 121
e 103 131
e 104 105
e 104 106
e 104 107
e 104 108
e 104 113
e 104 122
e 104 132
e 105 106
e 105 107
e 105 108
e 105 114
e 105 123
e 105 133
e 106 107
e 106 108
e 106 124
e 106 134
e 107 108
e 107 115
e 107 125
e 107 135
e 108 117
e 109 110
e 109 111
e 109 112
e 109 113
e 109 114
e 109 115
e 109 116
e 109 117
e 109 118
e 109 128
e 110 111
e 110 112
e 110 113
e 110 114
e 110 115
e 110 116
e 110 117
e 110 119
e 111 112
e 111 113
e 111 114
e 111 115
e 111 116
e 111 117
e 111 120
e 111 129
e 112 113
e 112 114
e 112 115
e 112 116
e 112 117
e 112 121
e 112 131
e 113 114
e 113 115
e 113 116
e 113 117
e 113 122
e 113 132
e 114 115
e 114 116
e 114 117
e 114 123
e 114 133
e 115 116
e 115 117
e 115 125
e 115 135
e 116 117
e 118 119
e 118 120
e 118 121
e 118 122
e 118 123
e 118 124
e 118 125
e 118 126
e 118 127
e 118 128
e 119 120
e 119 121
e 119 122
e 119 123
e 119 124
e 119 125
e 119 126
e 119 127
e 120 121
e 120 122
e 120 123
e 120 124
e 120 125
e 120 126
e 120 127
e 120 129
e 121 122
e 121 123
e 121 124
e 121 125
e 121 126
e 121 127
e 121 131
e 122 123
e 122 124
e 122 125
e 122 126
e 122 127
e 122 132
e 123 124
e 123 125
e 123 126
e 123 127
e 123 133
e 124 125
e 124 126
e 124 127
e 124 134
e 125 126
e 125 127
e 125 135
e 126 127
e 126 137
e 127 138
e 128 129
e 128 130
e 128 131
e 128 132
e 128 133
e 128 134
e 128 135
e 128 136
e 128 137
e 128 138
e 129 130
e 129 131
e 129 132
e 129 133
e 129 134
e 129 135
e 129 136
e 129 137
e 129 138
e 130 131
e 130 132
e 130 133
e 130 134
e 130 135
e 130 136
e 130 137
e 130 138
e 131 132
e 131 133
e 131 134
e 131 135
e 131 136
e 131 137
e 131 138
e 132 133
e 132 134
e 132 135
e 132 136
e 132 137
e 132 138
e 133 134
e 133 135
e 133 136
e 133 137
e 133 138
e 134 135
e 134 136
e 134 137
e 134 138
e 135 136
e 135 137
e 135 138
e 136 137
e 136 138
e 137 138
